h -5 0
h 5 0
4982589505883753979 -221 0
4603572949617631555 -222 0
1521266480092543589 -223 0
671375382102907219 -224 0
4148532921121966131 -225 0
h -216 170 0
h -170 -207 0
h 216 207 -170 0
h 207 170 0
h -207 170 216 226 0
2202678000945010735 -226 0
84287060704697025 -227 0
232441773241041382 -228 0
